c graph converted from Delauney Triangulation format
c weights on edges removed (lost)
x low 0.00
p edge 264 772
n 0 1.00
n 39 1.00
n 38 1.00
n 40 1.00
n 33 1.00
n 32 1.00
n 42 1.00
n 46 1.00
n 27 1.00
n 26 1.00
n 21 1.00
n 20 1.00
n 15 1.00
n 51 1.00
n 14 1.00
n 9 1.00
n 8 1.00
n 3 1.00
n 2 1.00
n 1 1.00
n 83 1.00
n 5 1.00
n 4 1.00
n 7 1.00
n 6 1.00
n 81 1.00
n 80 1.00
n 11 1.00
n 77 1.00
n 10 1.00
n 13 1.00
n 12 1.00
n 76 1.00
n 17 1.00
n 73 1.00
n 16 1.00
n 19 1.00
n 18 1.00
n 72 1.00
n 23 1.00
n 69 1.00
n 22 1.00
n 25 1.00
n 24 1.00
n 68 1.00
n 29 1.00
n 65 1.00
n 28 1.00
n 31 1.00
n 30 1.00
n 64 1.00
n 35 1.00
n 61 1.00
n 34 1.00
n 37 1.00
n 36 1.00
n 60 1.00
n 59 1.00
n 120 1.00
n 119 1.00
n 41 1.00
n 118 1.00
n 58 1.00
n 43 1.00
n 44 1.00
n 121 1.00
n 45 1.00
n 57 1.00
n 56 1.00
n 47 1.00
n 48 1.00
n 50 1.00
n 49 1.00
n 55 1.00
n 52 1.00
n 53 1.00
n 127 1.00
n 54 1.00
n 126 1.00
n 125 1.00
n 128 1.00
n 123 1.00
n 122 1.00
n 62 1.00
n 63 1.00
n 115 1.00
n 66 1.00
n 114 1.00
n 67 1.00
n 109 1.00
n 70 1.00
n 108 1.00
n 71 1.00
n 103 1.00
n 74 1.00
n 102 1.00
n 75 1.00
n 97 1.00
n 78 1.00
n 96 1.00
n 79 1.00
n 91 1.00
n 82 1.00
n 90 1.00
n 85 1.00
n 84 1.00
n 87 1.00
n 86 1.00
n 131 1.00
n 132 1.00
n 89 1.00
n 88 1.00
n 93 1.00
n 92 1.00
n 95 1.00
n 94 1.00
n 130 1.00
n 129 1.00
n 99 1.00
n 98 1.00
n 101 1.00
n 100 1.00
n 105 1.00
n 104 1.00
n 107 1.00
n 106 1.00
n 111 1.00
n 110 1.00
n 113 1.00
n 112 1.00
n 117 1.00
n 116 1.00
n 124 1.00
n 148 1.00
n 149 1.00
n 150 1.00
n 231 1.00
n 140 1.00
n 141 1.00
n 142 1.00
n 143 1.00
n 145 1.00
n 135 1.00
n 136 1.00
n 137 1.00
n 138 1.00
n 139 1.00
n 133 1.00
n 134 1.00
n 195 1.00
n 198 1.00
n 194 1.00
n 191 1.00
n 186 1.00
n 185 1.00
n 180 1.00
n 179 1.00
n 174 1.00
n 171 1.00
n 170 1.00
n 165 1.00
n 164 1.00
n 144 1.00
n 146 1.00
n 147 1.00
n 160 1.00
n 163 1.00
n 162 1.00
n 224 1.00
n 223 1.00
n 237 1.00
n 161 1.00
n 154 1.00
n 157 1.00
n 158 1.00
n 153 1.00
n 159 1.00
n 152 1.00
n 151 1.00
n 230 1.00
n 155 1.00
n 156 1.00
n 229 1.00
n 226 1.00
n 227 1.00
n 225 1.00
n 236 1.00
n 166 1.00
n 167 1.00
n 169 1.00
n 168 1.00
n 221 1.00
n 172 1.00
n 173 1.00
n 220 1.00
n 175 1.00
n 176 1.00
n 217 1.00
n 178 1.00
n 177 1.00
n 215 1.00
n 181 1.00
n 182 1.00
n 214 1.00
n 184 1.00
n 183 1.00
n 211 1.00
n 187 1.00
n 188 1.00
n 210 1.00
n 190 1.00
n 189 1.00
n 207 1.00
n 193 1.00
n 192 1.00
n 206 1.00
n 196 1.00
n 197 1.00
n 204 1.00
n 200 1.00
n 201 1.00
n 199 1.00
n 259 1.00
n 258 1.00
n 202 1.00
n 260 1.00
n 203 1.00
n 257 1.00
n 205 1.00
n 255 1.00
n 208 1.00
n 252 1.00
n 209 1.00
n 251 1.00
n 212 1.00
n 248 1.00
n 213 1.00
n 247 1.00
n 216 1.00
n 244 1.00
n 218 1.00
n 242 1.00
n 219 1.00
n 241 1.00
n 222 1.00
n 238 1.00
n 263 1.00
n 235 1.00
n 234 1.00
n 228 1.00
n 233 1.00
n 232 1.00
n 239 1.00
n 240 1.00
n 243 1.00
n 245 1.00
n 246 1.00
n 262 1.00
n 249 1.00
n 250 1.00
n 253 1.00
n 254 1.00
n 256 1.00
n 261 1.00
e 0 39
e 0 38
e 0 40
e 0 33
e 0 32
e 0 42
e 0 46
e 0 27
e 0 26
e 0 21
e 0 20
e 0 15
e 0 51
e 0 14
e 0 9
e 0 8
e 0 3
e 0 2
e 1 83
e 1 5
e 1 4
e 1 2
e 2 4
e 2 3
e 3 4
e 3 7
e 3 8
e 4 5
e 4 7
e 4 6
e 5 83
e 5 81
e 5 6
e 5 80
e 6 7
e 6 80
e 6 11
e 6 77
e 7 8
e 7 10
e 7 11
e 8 10
e 8 9
e 9 10
e 9 13
e 9 14
e 10 11
e 10 13
e 10 12
e 11 77
e 11 12
e 11 76
e 12 13
e 12 76
e 12 17
e 12 73
e 13 14
e 13 16
e 13 17
e 14 16
e 14 15
e 15 16
e 15 19
e 15 20
e 16 17
e 16 19
e 16 18
e 17 73
e 17 18
e 17 72
e 18 19
e 18 72
e 18 23
e 18 69
e 19 20
e 19 22
e 19 23
e 20 22
e 20 21
e 21 22
e 21 25
e 21 26
e 22 23
e 22 25
e 22 24
e 23 69
e 23 24
e 23 68
e 24 25
e 24 68
e 24 29
e 24 65
e 25 26
e 25 28
e 25 29
e 26 28
e 26 27
e 27 28
e 27 31
e 27 32
e 28 29
e 28 31
e 28 30
e 29 65
e 29 30
e 29 64
e 30 31
e 30 64
e 30 35
e 30 61
e 31 32
e 31 34
e 31 35
e 32 34
e 32 33
e 33 34
e 33 37
e 33 38
e 34 35
e 34 37
e 34 36
e 35 61
e 35 36
e 35 60
e 36 37
e 36 60
e 36 39
e 37 38
e 37 39
e 38 39
e 39 60
e 39 40
e 39 59
e 40 59
e 40 120
e 40 119
e 40 41
e 40 42
e 41 119
e 41 118
e 41 58
e 41 42
e 42 58
e 42 43
e 42 46
e 43 58
e 43 44
e 43 46
e 44 58
e 44 121
e 44 45
e 44 46
e 45 121
e 45 57
e 45 56
e 45 47
e 45 46
e 45 48
e 46 47
e 46 50
e 46 51
e 47 48
e 47 50
e 47 49
e 48 56
e 48 49
e 48 55
e 49 50
e 49 55
e 49 52
e 50 51
e 50 52
e 51 52
e 52 55
e 52 53
e 52 127
e 53 55
e 53 54
e 53 126
e 53 125
e 53 127
e 54 56
e 54 57
e 54 55
e 54 126
e 55 56
e 56 57
e 57 121
e 57 126
e 58 118
e 58 128
e 58 121
e 58 123
e 58 122
e 59 61
e 59 62
e 59 60
e 59 120
e 60 61
e 61 64
e 61 62
e 62 64
e 62 63
e 62 115
e 62 120
e 63 65
e 63 66
e 63 64
e 63 114
e 63 115
e 64 65
e 65 68
e 65 66
e 66 68
e 66 67
e 66 109
e 66 114
e 67 69
e 67 70
e 67 68
e 67 108
e 67 109
e 68 69
e 69 72
e 69 70
e 70 72
e 70 71
e 70 103
e 70 108
e 71 73
e 71 74
e 71 72
e 71 102
e 71 103
e 72 73
e 73 76
e 73 74
e 74 76
e 74 75
e 74 97
e 74 102
e 75 77
e 75 78
e 75 76
e 75 96
e 75 97
e 76 77
e 77 80
e 77 78
e 78 80
e 78 79
e 78 91
e 78 96
e 79 81
e 79 82
e 79 80
e 79 90
e 79 91
e 80 81
e 81 83
e 81 82
e 82 85
e 82 83
e 82 90
e 83 85
e 83 84
e 84 87
e 84 86
e 84 85
e 84 131
e 84 132
e 85 86
e 85 90
e 85 89
e 86 87
e 86 89
e 86 88
e 87 88
e 87 131
e 88 89
e 88 93
e 88 131
e 89 90
e 89 92
e 89 93
e 90 91
e 90 92
e 91 92
e 91 96
e 91 95
e 92 93
e 92 95
e 92 94
e 93 131
e 93 94
e 93 130
e 93 129
e 94 95
e 94 99
e 94 129
e 95 96
e 95 98
e 95 99
e 96 97
e 96 98
e 97 98
e 97 102
e 97 101
e 98 99
e 98 101
e 98 100
e 99 129
e 99 100
e 100 101
e 100 105
e 100 129
e 101 102
e 101 104
e 101 105
e 102 103
e 102 104
e 103 104
e 103 108
e 103 107
e 104 105
e 104 107
e 104 106
e 105 106
e 105 129
e 106 107
e 106 111
e 106 129
e 106 128
e 107 108
e 107 110
e 107 111
e 108 109
e 108 110
e 109 110
e 109 114
e 109 113
e 110 111
e 110 113
e 110 112
e 111 112
e 111 128
e 112 113
e 112 117
e 112 128
e 113 114
e 113 116
e 113 117
e 114 115
e 114 116
e 115 116
e 115 120
e 115 119
e 116 117
e 116 119
e 116 118
e 117 118
e 117 128
e 118 119
e 118 128
e 119 120
e 121 122
e 121 126
e 121 125
e 122 123
e 122 125
e 122 124
e 123 124
e 123 128
e 123 127
e 123 148
e 124 125
e 124 127
e 125 126
e 125 127
e 127 148
e 127 149
e 127 150
e 127 231
e 128 129
e 128 140
e 128 141
e 128 142
e 128 143
e 128 145
e 128 148
e 129 130
e 129 135
e 129 136
e 129 137
e 129 138
e 129 139
e 129 140
e 130 131
e 130 135
e 131 132
e 131 133
e 131 134
e 131 135
e 132 195
e 132 198
e 132 133
e 133 195
e 133 194
e 133 134
e 134 194
e 134 191
e 134 135
e 135 191
e 135 186
e 135 136
e 136 186
e 136 185
e 136 137
e 137 185
e 137 180
e 137 138
e 138 180
e 138 179
e 138 139
e 139 179
e 139 174
e 139 140
e 140 174
e 140 171
e 140 141
e 141 171
e 141 170
e 141 142
e 142 170
e 142 165
e 142 143
e 143 165
e 143 164
e 143 144
e 143 145
e 144 164
e 144 146
e 144 145
e 145 146
e 145 147
e 145 160
e 145 148
e 146 164
e 146 163
e 146 162
e 146 147
e 146 224
e 147 224
e 147 223
e 147 237
e 147 161
e 147 160
e 148 154
e 148 157
e 148 158
e 148 153
e 148 149
e 148 159
e 148 160
e 149 153
e 149 150
e 150 152
e 150 151
e 150 230
e 150 153
e 150 231
e 151 155
e 151 156
e 151 152
e 151 229
e 151 230
e 152 154
e 152 155
e 152 153
e 153 154
e 154 157
e 154 155
e 155 156
e 155 157
e 156 226
e 156 157
e 156 229
e 157 227
e 157 158
e 157 226
e 158 225
e 158 159
e 158 227
e 159 225
e 159 160
e 160 225
e 160 161
e 161 237
e 161 236
e 161 225
e 162 166
e 162 167
e 162 163
e 162 224
e 163 165
e 163 166
e 163 164
e 164 165
e 165 170
e 165 166
e 166 170
e 166 169
e 166 167
e 167 169
e 167 168
e 167 221
e 167 224
e 168 172
e 168 173
e 168 169
e 168 220
e 168 221
e 169 171
e 169 172
e 169 170
e 170 171
e 171 174
e 171 172
e 172 174
e 172 175
e 172 173
e 173 175
e 173 176
e 173 217
e 173 220
e 174 179
e 174 175
e 175 179
e 175 178
e 175 176
e 176 178
e 176 177
e 176 215
e 176 217
e 177 181
e 177 182
e 177 178
e 177 214
e 177 215
e 178 180
e 178 181
e 178 179
e 179 180
e 180 185
e 180 181
e 181 185
e 181 184
e 181 182
e 182 184
e 182 183
e 182 211
e 182 214
e 183 187
e 183 188
e 183 184
e 183 210
e 183 211
e 184 186
e 184 187
e 184 185
e 185 186
e 186 191
e 186 187
e 187 191
e 187 190
e 187 188
e 188 190
e 188 189
e 188 207
e 188 210
e 189 193
e 189 192
e 189 190
e 189 206
e 189 207
e 190 194
e 190 193
e 190 191
e 191 194
e 192 196
e 192 197
e 192 204
e 192 193
e 192 206
e 193 195
e 193 196
e 193 194
e 194 195
e 195 198
e 195 196
e 196 200
e 196 198
e 196 197
e 197 200
e 197 201
e 197 204
e 198 200
e 199 259
e 199 258
e 199 202
e 199 200
e 199 260
e 200 202
e 200 201
e 201 202
e 201 204
e 201 203
e 202 258
e 202 203
e 202 257
e 203 204
e 203 257
e 203 205
e 203 255
e 204 206
e 204 205
e 205 206
e 205 255
e 205 208
e 205 252
e 206 207
e 206 208
e 207 208
e 207 210
e 207 209
e 208 252
e 208 209
e 208 251
e 209 210
e 209 251
e 209 212
e 209 248
e 210 211
e 210 212
e 211 212
e 211 214
e 211 213
e 212 248
e 212 213
e 212 247
e 213 214
e 213 247
e 213 216
e 213 244
e 214 215
e 214 216
e 215 216
e 215 217
e 215 218
e 216 244
e 216 218
e 216 242
e 217 218
e 217 220
e 217 219
e 218 242
e 218 219
e 218 241
e 219 220
e 219 241
e 219 222
e 219 238
e 220 221
e 220 222
e 221 222
e 221 224
e 221 223
e 222 238
e 222 223
e 222 237
e 223 224
e 223 237
e 225 236
e 225 263
e 225 227
e 225 235
e 225 234
e 226 227
e 226 229
e 226 228
e 227 234
e 227 228
e 227 233
e 228 229
e 228 233
e 228 230
e 229 230
e 230 233
e 230 231
e 231 233
e 231 232
e 231 235
e 231 263
e 232 234
e 232 235
e 232 233
e 233 234
e 234 235
e 235 263
e 236 238
e 236 239
e 236 237
e 236 263
e 237 238
e 238 241
e 238 239
e 239 241
e 239 240
e 239 263
e 240 242
e 240 243
e 240 241
e 240 263
e 241 242
e 242 244
e 242 243
e 243 244
e 243 245
e 243 263
e 244 247
e 244 245
e 245 247
e 245 246
e 245 262
e 245 263
e 246 248
e 246 249
e 246 247
e 246 262
e 247 248
e 248 251
e 248 249
e 249 251
e 249 250
e 249 262
e 250 252
e 250 253
e 250 251
e 250 262
e 251 252
e 252 255
e 252 253
e 253 255
e 253 254
e 253 262
e 254 257
e 254 256
e 254 255
e 254 260
e 254 261
e 254 262
e 255 257
e 256 258
e 256 259
e 256 257
e 256 260
e 257 258
e 258 259
e 259 260
e 260 261
e 261 262
e 262 263
